BAYES
625
2 2 2 2 2 2 2 2 2 2 2 2 2 2 2 2 2 2 2 2 2 2 2 2 2 2 2 2 2 2 2 2 2 2 2 2 2 2 2 2 2 2 2 2 2 2 2 2 2 2 2 2 2 2 2 2 2 2 2 2 2 2 2 2 2 2 2 2 2 2 2 2 2 2 2 2 2 2 2 2 2 2 2 2 2 2 2 2 2 2 2 2 2 2 2 2 2 2 2 2 2 2 2 2 2 2 2 2 2 2 2 2 2 2 2 2 2 2 2 2 2 2 2 2 2 2 2 2 2 2 2 2 2 2 2 2 2 2 2 2 2 2 2 2 2 2 2 2 2 2 2 2 2 2 2 2 2 2 2 2 2 2 2 2 2 2 2 2 2 2 2 2 2 2 2 2 2 2 2 2 2 2 2 2 2 2 2 2 2 2 2 2 2 2 2 2 2 2 2 2 2 2 2 2 2 2 2 2 2 2 2 2 2 2 2 2 2 2 2 2 2 2 2 2 2 2 2 2 2 2 2 2 2 2 2 2 2 2 2 2 2 2 2 2 2 2 2 2 2 2 2 2 2 2 2 2 2 2 2 2 2 2 2 2 2 2 2 2 2 2 2 2 2 2 2 2 2 2 2 2 2 2 2 2 2 2 2 2 2 2 2 2 2 2 2 2 2 2 2 2 2 2 2 2 2 2 2 2 2 2 2 2 2 2 2 2 2 2 2 2 2 2 2 2 2 2 2 2 2 2 2 2 2 2 2 2 2 2 2 2 2 2 2 2 2 2 2 2 2 2 2 2 2 2 2 2 2 2 2 2 2 2 2 2 2 2 2 2 2 2 2 2 2 2 2 2 2 2 2 2 2 2 2 2 2 2 2 2 2 2 2 2 2 2 2 2 2 2 2 2 2 2 2 2 2 2 2 2 2 2 2 2 2 2 2 2 2 2 2 2 2 2 2 2 2 2 2 2 2 2 2 2 2 2 2 2 2 2 2 2 2 2 2 2 2 2 2 2 2 2 2 2 2 2 2 2 2 2 2 2 2 2 2 2 2 2 2 2 2 2 2 2 2 2 2 2 2 2 2 2 2 2 2 2 2 2 2 2 2 2 2 2 2 2 2 2 2 2 2 2 2 2 2 2 2 2 2 2 2 2 2 2 2 2 2 2 2 2 2 2 2 2 2 2 2 2 2 2 2 2 2 2 2 2 2 2 2 2 2 2 2 2 2 2 2 2 2 2 2 2 2 2 2 2 2 2 2 2 2 2 2 2 2 2 2 2 2 2 2 2 2 2 2 2 2 2 2 2 2 2 2 2 2 2 2 2 2 2 2 2 2 2 2 2 2 2 2 2 2 2 2 2 2 2 2 2 2 2 2 2 2 2 2 2 2 2 2 2 2 2 2 2 2 2 2
625
3 25 1 0
3 26 2 1
3 27 3 2
3 28 4 3
3 29 5 4
3 30 6 5
3 31 7 6
3 32 8 7
3 33 9 8
3 34 10 9
3 35 11 10
3 36 12 11
3 37 13 12
3 38 14 13
3 39 15 14
3 40 16 15
3 41 17 16
3 42 18 17
3 43 19 18
3 44 20 19
3 45 21 20
3 46 22 21
3 47 23 22
3 48 24 23
2 49 24
3 50 26 25
3 51 27 26
3 52 28 27
3 53 29 28
3 54 30 29
3 55 31 30
3 56 32 31
3 57 33 32
3 58 34 33
3 59 35 34
3 60 36 35
3 61 37 36
3 62 38 37
3 63 39 38
3 64 40 39
3 65 41 40
3 66 42 41
3 67 43 42
3 68 44 43
3 69 45 44
3 70 46 45
3 71 47 46
3 72 48 47
3 73 49 48
2 74 49
3 75 51 50
3 76 52 51
3 77 53 52
3 78 54 53
3 79 55 54
3 80 56 55
3 81 57 56
3 82 58 57
3 83 59 58
3 84 60 59
3 85 61 60
3 86 62 61
3 87 63 62
3 88 64 63
3 89 65 64
3 90 66 65
3 91 67 66
3 92 68 67
3 93 69 68
3 94 70 69
3 95 71 70
3 96 72 71
3 97 73 72
3 98 74 73
2 99 74
3 100 76 75
3 101 77 76
3 102 78 77
3 103 79 78
3 104 80 79
3 105 81 80
3 106 82 81
3 107 83 82
3 108 84 83
3 109 85 84
3 110 86 85
3 111 87 86
3 112 88 87
3 113 89 88
3 114 90 89
3 115 91 90
3 116 92 91
3 117 93 92
3 118 94 93
3 119 95 94
3 120 96 95
3 121 97 96
3 122 98 97
3 123 99 98
2 124 99
3 125 101 100
3 126 102 101
3 127 103 102
3 128 104 103
3 129 105 104
3 130 106 105
3 131 107 106
3 132 108 107
3 133 109 108
3 134 110 109
3 135 111 110
3 136 112 111
3 137 113 112
3 138 114 113
3 139 115 114
3 140 116 115
3 141 117 116
3 142 118 117
3 143 119 118
3 144 120 119
3 145 121 120
3 146 122 121
3 147 123 122
3 148 124 123
2 149 124
3 150 126 125
3 151 127 126
3 152 128 127
3 153 129 128
3 154 130 129
3 155 131 130
3 156 132 131
3 157 133 132
3 158 134 133
3 159 135 134
3 160 136 135
3 161 137 136
3 162 138 137
3 163 139 138
3 164 140 139
3 165 141 140
3 166 142 141
3 167 143 142
3 168 144 143
3 169 145 144
3 170 146 145
3 171 147 146
3 172 148 147
3 173 149 148
2 174 149
3 175 151 150
3 176 152 151
3 177 153 152
3 178 154 153
3 179 155 154
3 180 156 155
3 181 157 156
3 182 158 157
3 183 159 158
3 184 160 159
3 185 161 160
3 186 162 161
3 187 163 162
3 188 164 163
3 189 165 164
3 190 166 165
3 191 167 166
3 192 168 167
3 193 169 168
3 194 170 169
3 195 171 170
3 196 172 171
3 197 173 172
3 198 174 173
2 199 174
3 200 176 175
3 201 177 176
3 202 178 177
3 203 179 178
3 204 180 179
3 205 181 180
3 206 182 181
3 207 183 182
3 208 184 183
3 209 185 184
3 210 186 185
3 211 187 186
3 212 188 187
3 213 189 188
3 214 190 189
3 215 191 190
3 216 192 191
3 217 193 192
3 218 194 193
3 219 195 194
3 220 196 195
3 221 197 196
3 222 198 197
3 223 199 198
2 224 199
3 225 201 200
3 226 202 201
3 227 203 202
3 228 204 203
3 229 205 204
3 230 206 205
3 231 207 206
3 232 208 207
3 233 209 208
3 234 210 209
3 235 211 210
3 236 212 211
3 237 213 212
3 238 214 213
3 239 215 214
3 240 216 215
3 241 217 216
3 242 218 217
3 243 219 218
3 244 220 219
3 245 221 220
3 246 222 221
3 247 223 222
3 248 224 223
2 249 224
3 250 226 225
3 251 227 226
3 252 228 227
3 253 229 228
3 254 230 229
3 255 231 230
3 256 232 231
3 257 233 232
3 258 234 233
3 259 235 234
3 260 236 235
3 261 237 236
3 262 238 237
3 263 239 238
3 264 240 239
3 265 241 240
3 266 242 241
3 267 243 242
3 268 244 243
3 269 245 244
3 270 246 245
3 271 247 246
3 272 248 247
3 273 249 248
2 274 249
3 275 251 250
3 276 252 251
3 277 253 252
3 278 254 253
3 279 255 254
3 280 256 255
3 281 257 256
3 282 258 257
3 283 259 258
3 284 260 259
3 285 261 260
3 286 262 261
3 287 263 262
3 288 264 263
3 289 265 264
3 290 266 265
3 291 267 266
3 292 268 267
3 293 269 268
3 294 270 269
3 295 271 270
3 296 272 271
3 297 273 272
3 298 274 273
2 299 274
3 300 276 275
3 301 277 276
3 302 278 277
3 303 279 278
3 304 280 279
3 305 281 280
3 306 282 281
3 307 283 282
3 308 284 283
3 309 285 284
3 310 286 285
3 311 287 286
3 312 288 287
3 313 289 288
3 314 290 289
3 315 291 290
3 316 292 291
3 317 293 292
3 318 294 293
3 319 295 294
3 320 296 295
3 321 297 296
3 322 298 297
3 323 299 298
2 324 299
3 325 301 300
3 326 302 301
3 327 303 302
3 328 304 303
3 329 305 304
3 330 306 305
3 331 307 306
3 332 308 307
3 333 309 308
3 334 310 309
3 335 311 310
3 336 312 311
3 337 313 312
3 338 314 313
3 339 315 314
3 340 316 315
3 341 317 316
3 342 318 317
3 343 319 318
3 344 320 319
3 345 321 320
3 346 322 321
3 347 323 322
3 348 324 323
2 349 324
3 350 326 325
3 351 327 326
3 352 328 327
3 353 329 328
3 354 330 329
3 355 331 330
3 356 332 331
3 357 333 332
3 358 334 333
3 359 335 334
3 360 336 335
3 361 337 336
3 362 338 337
3 363 339 338
3 364 340 339
3 365 341 340
3 366 342 341
3 367 343 342
3 368 344 343
3 369 345 344
3 370 346 345
3 371 347 346
3 372 348 347
3 373 349 348
2 374 349
3 375 351 350
3 376 352 351
3 377 353 352
3 378 354 353
3 379 355 354
3 380 356 355
3 381 357 356
3 382 358 357
3 383 359 358
3 384 360 359
3 385 361 360
3 386 362 361
3 387 363 362
3 388 364 363
3 389 365 364
3 390 366 365
3 391 367 366
3 392 368 367
3 393 369 368
3 394 370 369
3 395 371 370
3 396 372 371
3 397 373 372
3 398 374 373
2 399 374
3 400 376 375
3 401 377 376
3 402 378 377
3 403 379 378
3 404 380 379
3 405 381 380
3 406 382 381
3 407 383 382
3 408 384 383
3 409 385 384
3 410 386 385
3 411 387 386
3 412 388 387
3 413 389 388
3 414 390 389
3 415 391 390
3 416 392 391
3 417 393 392
3 418 394 393
3 419 395 394
3 420 396 395
3 421 397 396
3 422 398 397
3 423 399 398
2 424 399
3 425 401 400
3 426 402 401
3 427 403 402
3 428 404 403
3 429 405 404
3 430 406 405
3 431 407 406
3 432 408 407
3 433 409 408
3 434 410 409
3 435 411 410
3 436 412 411
3 437 413 412
3 438 414 413
3 439 415 414
3 440 416 415
3 441 417 416
3 442 418 417
3 443 419 418
3 444 420 419
3 445 421 420
3 446 422 421
3 447 423 422
3 448 424 423
2 449 424
3 450 426 425
3 451 427 426
3 452 428 427
3 453 429 428
3 454 430 429
3 455 431 430
3 456 432 431
3 457 433 432
3 458 434 433
3 459 435 434
3 460 436 435
3 461 437 436
3 462 438 437
3 463 439 438
3 464 440 439
3 465 441 440
3 466 442 441
3 467 443 442
3 468 444 443
3 469 445 444
3 470 446 445
3 471 447 446
3 472 448 447
3 473 449 448
2 474 449
3 475 451 450
3 476 452 451
3 477 453 452
3 478 454 453
3 479 455 454
3 480 456 455
3 481 457 456
3 482 458 457
3 483 459 458
3 484 460 459
3 485 461 460
3 486 462 461
3 487 463 462
3 488 464 463
3 489 465 464
3 490 466 465
3 491 467 466
3 492 468 467
3 493 469 468
3 494 470 469
3 495 471 470
3 496 472 471
3 497 473 472
3 498 474 473
2 499 474
3 500 476 475
3 501 477 476
3 502 478 477
3 503 479 478
3 504 480 479
3 505 481 480
3 506 482 481
3 507 483 482
3 508 484 483
3 509 485 484
3 510 486 485
3 511 487 486
3 512 488 487
3 513 489 488
3 514 490 489
3 515 491 490
3 516 492 491
3 517 493 492
3 518 494 493
3 519 495 494
3 520 496 495
3 521 497 496
3 522 498 497
3 523 499 498
2 524 499
3 525 501 500
3 526 502 501
3 527 503 502
3 528 504 503
3 529 505 504
3 530 506 505
3 531 507 506
3 532 508 507
3 533 509 508
3 534 510 509
3 535 511 510
3 536 512 511
3 537 513 512
3 538 514 513
3 539 515 514
3 540 516 515
3 541 517 516
3 542 518 517
3 543 519 518
3 544 520 519
3 545 521 520
3 546 522 521
3 547 523 522
3 548 524 523
2 549 524
3 550 526 525
3 551 527 526
3 552 528 527
3 553 529 528
3 554 530 529
3 555 531 530
3 556 532 531
3 557 533 532
3 558 534 533
3 559 535 534
3 560 536 535
3 561 537 536
3 562 538 537
3 563 539 538
3 564 540 539
3 565 541 540
3 566 542 541
3 567 543 542
3 568 544 543
3 569 545 544
3 570 546 545
3 571 547 546
3 572 548 547
3 573 549 548
2 574 549
3 575 551 550
3 576 552 551
3 577 553 552
3 578 554 553
3 579 555 554
3 580 556 555
3 581 557 556
3 582 558 557
3 583 559 558
3 584 560 559
3 585 561 560
3 586 562 561
3 587 563 562
3 588 564 563
3 589 565 564
3 590 566 565
3 591 567 566
3 592 568 567
3 593 569 568
3 594 570 569
3 595 571 570
3 596 572 571
3 597 573 572
3 598 574 573
2 599 574
3 600 576 575
3 601 577 576
3 602 578 577
3 603 579 578
3 604 580 579
3 605 581 580
3 606 582 581
3 607 583 582
3 608 584 583
3 609 585 584
3 610 586 585
3 611 587 586
3 612 588 587
3 613 589 588
3 614 590 589
3 615 591 590
3 616 592 591
3 617 593 592
3 618 594 593
3 619 595 594
3 620 596 595
3 621 597 596
3 622 598 597
3 623 599 598
2 624 599
2 601 600
2 602 601
2 603 602
2 604 603
2 605 604
2 606 605
2 607 606
2 608 607
2 609 608
2 610 609
2 611 610
2 612 611
2 613 612
2 614 613
2 615 614
2 616 615
2 617 616
2 618 617
2 619 618
2 620 619
2 621 620
2 622 621
2 623 622
2 624 623
1  624
8
1 0 0 1 0 1 0 1
8
0 1 0 1 1 0 1 0
8
0 1 0 1 1 0 1 0
8
0 1 1 0 0 1 1 0
8
0 1 0 1 1 0 1 0
8
1 0 0 1 0 1 0 1
8
1 0 0 1 0 1 1 0
8
1 0 0 1 1 0 0 1
8
1 0 0 1 0 1 1 0
8
1 0 0 1 0 1 1 0
8
0 1 0 1 1 0 1 0
8
1 0 0 1 0 1 0 1
8
0 1 1 0 1 0 0 1
8
1 0 0 1 0 1 0 1
8
1 0 0 1 1 0 0 1
8
0 1 0 1 1 0 1 0
8
0 1 1 0 0 1 0 1
8
0 1 0 1 1 0 1 0
8
0 1 0 1 0 1 1 0
8
0 1 1 0 0 1 1 0
8
0 1 0 1 1 0 1 0
8
1 0 1 0 1 0 1 0
8
1 0 1 0 1 0 1 0
8
0 1 0 1 0 1 1 0
4
0 1 1 0
8
1 0 0 1 0 1 0 1
8
1 0 0 1 0 1 1 0
8
0 1 0 1 1 0 0 1
8
1 0 1 0 0 1 0 1
8
1 0 1 0 1 0 1 0
8
0 1 0 1 0 1 0 1
8
0 1 1 0 1 0 0 1
8
1 0 0 1 0 1 1 0
8
1 0 0 1 0 1 0 1
8
1 0 0 1 0 1 0 1
8
0.5576403834754936 0.4423596165245064 0.5341184874512559 0.4658815125487441 0.6099537833218925 0.3900462166781073 0.3914977547647446 0.6085022452352554
8
0 1 0 1 0 1 0 1
8
0 1 1 0 0 1 0 1
8
0.8672421103309245 0.1327578896690756 0.9596598072074124 0.04034019279258765 0.6764005894805457 0.3235994105194543 0.509629193322222 0.49037080667777805
8
0 1 0 1 1 0 0 1
8
0 1 0 1 1 0 1 0
8
0 1 1 0 0 1 0 1
8
1 0 0 1 1 0 0 1
8
1 0 1 0 1 0 1 0
8
1 0 0 1 0 1 0 1
8
1 0 1 0 0 1 0 1
8
0.04089280082593925 0.9591071991740607 0.23190083592399782 0.7680991640760022 0.432727379505194 0.567272620494806 0.8517309074732335 0.14826909252676643
8
1 0 0 1 1 0 1 0
8
1 0 1 0 0 1 0 1
4
1 0 1 0
8
0 1 0 1 0 1 1 0
8
1 0 1 0 0 1 1 0
8
0 1 1 0 0 1 0 1
8
0 1 1 0 1 0 1 0
8
0 1 0 1 1 0 0 1
8
1 0 1 0 0 1 0 1
8
1 0 0 1 1 0 0 1
8
0.7222066918261434 0.2777933081738568 0.6799515906210715 0.3200484093789285 0.3285241442364273 0.6714758557635727 0.5373237304898156 0.46267626951018437
8
1 0 1 0 1 0 1 0
8
1 0 1 0 1 0 0 1
8
1 0 0 1 0 1 1 0
8
1 0 1 0 1 0 0 1
8
1 0 1 0 0 1 1 0
8
0 1 0 1 1 0 1 0
8
0 1 0 1 0 1 0 1
8
1 0 0 1 1 0 1 0
8
0 1 0 1 0 1 1 0
8
0 1 0 1 0 1 1 0
8
0.5726929034671592 0.42730709653284077 0.6588638852964634 0.3411361147035366 0.4759846605942095 0.5240153394057905 0.03425266393499912 0.9657473360650008
8
0 1 0 1 0 1 0 1
8
0 1 1 0 1 0 1 0
8
1 0 0 1 0 1 1 0
8
1 0 0 1 0 1 1 0
8
1 0 1 0 1 0 1 0
4
0 1 1 0
8
1 0 0 1 0 1 0 1
8
1 0 1 0 1 0 1 0
8
0 1 0 1 0 1 1 0
8
0.2878527891772813 0.7121472108227186 0.3305175999867469 0.6694824000132531 4.231783247656103e-07 0.9999995768216753 0.04151419464180732 0.9584858053581927
8
0 1 0 1 1 0 0 1
8
0 1 1 0 1 0 0 1
8
0 1 0 1 1 0 1 0
8
1 0 1 0 0 1 1 0
8
0 1 0 1 1 0 0 1
8
0 1 1 0 1 0 0 1
8
1 0 1 0 1 0 1 0
8
0 1 0 1 0 1 1 0
8
0 1 1 0 1 0 1 0
8
0 1 1 0 0 1 1 0
8
0 1 0 1 1 0 0 1
8
0 1 1 0 0 1 1 0
8
0 1 1 0 0 1 0 1
8
0 1 1 0 1 0 1 0
8
1 0 1 0 0 1 1 0
8
1 0 1 0 1 0 0 1
8
0 1 1 0 0 1 1 0
8
1 0 1 0 0 1 1 0
8
0.8954476694596061 0.1045523305403939 0.9023639536344654 0.09763604636553455 0.16542273429885457 0.8345772657011454 0.8889140256014425 0.1110859743985575
8
0 1 1 0 1 0 1 0
4
1 0 0 1
8
0.5547422035519602 0.44525779644803987 0.7977825563981978 0.20221744360180208 0.339268722183702 0.6607312778162979 0.8593156455980293 0.14068435440197066
8
0 1 0 1 0 1 0 1
8
0 1 0 1 1 0 0 1
8
0 1 0 1 1 0 1 0
8
0 1 0 1 0 1 1 0
8
1 0 1 0 0 1 0 1
8
1 0 1 0 0 1 1 0
8
0 1 1 0 1 0 1 0
8
1 0 0 1 0 1 0 1
8
1 0 1 0 0 1 0 1
8
1 0 0 1 0 1 0 1
8
1 0 1 0 0 1 1 0
8
0 1 1 0 1 0 1 0
8
1 0 1 0 0 1 0 1
8
1 0 0 1 1 0 1 0
8
0.27588574213876466 0.7241142578612354 0.563915289022079 0.436084710977921 0.41149096586085077 0.5885090341391493 0.6386611001264967 0.36133889987350326
8
0 1 1 0 0 1 1 0
8
0 1 1 0 1 0 1 0
8
0 1 1 0 0 1 0 1
8
0 1 0 1 1 0 0 1
8
0 1 1 0 0 1 0 1
8
0.8639922077796917 0.13600779222030834 0.05368896588930666 0.9463110341106933 0.5590971871143339 0.44090281288566613 0.5910246308064864 0.4089753691935135
8
0 1 0 1 0 1 0 1
8
0 1 0 1 1 0 1 0
4
0.4821108677125933 0.5178891322874067 0.9683475896752779 0.031652410324722095
8
0 1 1 0 1 0 0 1
8
0 1 0 1 1 0 1 0
8
0 1 1 0 0 1 1 0
8
0 1 0 1 0 1 1 0
8
1 0 1 0 0 1 1 0
8
1 0 0 1 0 1 0 1
8
0 1 1 0 1 0 0 1
8
1 0 1 0 1 0 1 0
8
0 1 0 1 0 1 1 0
8
0 1 0 1 1 0 0 1
8
1 0 1 0 1 0 1 0
8
0.015966364051344703 0.9840336359486553 0.4397456010609983 0.5602543989390016 0.5626911450461848 0.4373088549538153 0.5532586450964344 0.44674135490356554
8
1 0 1 0 1 0 1 0
8
1 0 1 0 1 0 0 1
8
1 0 0 1 0 1 1 0
8
0 1 0 1 1 0 1 0
8
0.42143711577094023 0.5785628842290597 0.8106238672480381 0.18937613275196188 0.5960917724451434 0.4039082275548565 0.4063941805486859 0.5936058194513141
8
0 1 0 1 0 1 0 1
8
0 1 0 1 1 0 0 1
8
0.8468996655697635 0.15310033443023655 0.25717076274669026 0.7428292372533096 0.46113339336924003 0.5388666066307601 0.5103886532217566 0.4896113467782433
8
1 0 1 0 0 1 0 1
8
1 0 0 1 1 0 0 1
8
1 0 0 1 1 0 0 1
8
0.2707133015085836 0.7292866984914164 0.8543954587387395 0.14560454126126054 0.5735625502772148 0.42643744972278513 0.8352558899298401 0.1647441100701599
4
0 1 0 1
8
0 1 0 1 0 1 0 1
8
0 1 1 0 0 1 0 1
8
0 1 1 0 0 1 1 0
8
0 1 0 1 0 1 1 0
8
0 1 1 0 1 0 0 1
8
0 1 1 0 1 0 0 1
8
0.6431540477275709 0.3568459522724292 0.8295940404344823 0.17040595956551777 0.5279411954312212 0.47205880456877874 0.6544248818040858 0.3455751181959142
8
0 1 0 1 0 1 1 0
8
1 0 1 0 1 0 1 0
8
0.0020884647050364103 0.9979115352949636 0.8054659903948447 0.1945340096051553 0.5437782810686205 0.4562217189313796 0.6027462567230432 0.3972537432769568
8
0 1 0 1 1 0 1 0
8
1 0 1 0 1 0 1 0
8
1 0 1 0 0 1 0 1
8
1 0 0 1 0 1 1 0
8
1 0 1 0 0 1 0 1
8
1 0 1 0 0 1 0 1
8
1 0 0 1 1 0 0 1
8
1 0 1 0 0 1 1 0
8
1 0 1 0 0 1 0 1
8
1 0 1 0 0 1 0 1
8
1 0 0 1 1 0 1 0
8
0 1 0 1 0 1 1 0
8
1 0 0 1 1 0 1 0
8
1 0 1 0 0 1 0 1
4
1 0 0 1
8
1 0 1 0 1 0 0 1
8
1 0 0 1 0 1 1 0
8
0 1 1 0 0 1 0 1
8
0 1 0 1 0 1 1 0
8
0 1 0 1 1 0 1 0
8
0 1 1 0 0 1 1 0
8
1 0 0 1 0 1 0 1
8
1 0 1 0 0 1 1 0
8
1 0 1 0 1 0 1 0
8
0 1 0 1 0 1 0 1
8
1 0 0 1 0 1 1 0
8
0.24808718967740426 0.7519128103225957 0.29845589223944213 0.7015441077605579 0.4262122918915189 0.5737877081084811 0.9820688408635152 0.017931159136484767
8
0 1 1 0 1 0 0 1
8
0.19149835123079847 0.8085016487692015 0.8914804349561476 0.10851956504385243 0.585419460710206 0.41458053928979394 0.47311518323693086 0.5268848167630691
8
0.07258610986728672 0.9274138901327132 0.7378326419957327 0.2621673580042673 0.20950621564267768 0.7904937843573223 0.5240580838173466 0.47594191618265336
8
1 0 1 0 1 0 0 1
8
0 1 1 0 1 0 0 1
8
1 0 0 1 0 1 1 0
8
0 1 0 1 1 0 0 1
8
1 0 1 0 0 1 1 0
8
0 1 0 1 0 1 0 1
8
1 0 0 1 0 1 0 1
8
1 0 0 1 0 1 0 1
8
0 1 0 1 1 0 0 1
4
1 0 1 0
8
1 0 0 1 1 0 0 1
8
1 0 0 1 1 0 0 1
8
1 0 0 1 1 0 1 0
8
0.3663323218211361 0.6336676781788638 0.6298699525253695 0.3701300474746305 0.08052999420689856 0.9194700057931015 0.7423598726753667 0.25764012732463326
8
0 1 1 0 1 0 0 1
8
0 1 1 0 1 0 1 0
8
1 0 0 1 1 0 0 1
8
1 0 0 1 0 1 1 0
8
1 0 0 1 0 1 0 1
8
0.33677141651306375 0.6632285834869363 0.24940667452762308 0.7505933254723769 0.011378941061038927 0.9886210589389611 0.586915116242503 0.413084883757497
8
0 1 1 0 0 1 1 0
8
0 1 1 0 0 1 0 1
8
0 1 0 1 1 0 0 1
8
1 0 1 0 1 0 0 1
8
1 0 0 1 0 1 0 1
8
0 1 1 0 0 1 0 1
8
1 0 1 0 0 1 0 1
8
0 1 0 1 0 1 0 1
8
0.34062109739319785 0.6593789026068022 0.4405790052877602 0.5594209947122398 0.856199810852848 0.14380018914715192 0.343738260995273 0.656261739004727
8
0 1 1 0 1 0 0 1
8
1 0 1 0 1 0 0 1
8
0 1 0 1 1 0 0 1
8
0 1 0 1 0 1 0 1
8
0 1 0 1 0 1 1 0
4
0.2862186398482846 0.7137813601517153 0.4189486196540291 0.5810513803459709
8
0 1 1 0 1 0 0 1
8
0.6034539598865659 0.3965460401134341 0.5867496257500059 0.4132503742499941 0.6895059952121213 0.31049400478787875 0.6378734676468618 0.36212653235313824
8
0 1 0 1 1 0 0 1
8
1 0 0 1 0 1 0 1
8
1 0 1 0 1 0 1 0
8
0 1 0 1 1 0 0 1
8
1 0 0 1 1 0 0 1
8
0 1 0 1 0 1 0 1
8
0.5509883209695315 0.4490116790304685 0.7220863260586574 0.2779136739413426 0.6341015433652084 0.36589845663479165 0.5039459109194913 0.49605408908050874
8
0 1 1 0 1 0 0 1
8
1 0 0 1 1 0 0 1
8
0 1 1 0 1 0 0 1
8
1 0 0 1 1 0 1 0
8
1 0 0 1 0 1 0 1
8
0 1 0 1 1 0 1 0
8
1 0 0 1 1 0 1 0
8
0.2537632424817614 0.7462367575182386 0.30252094796883355 0.6974790520311664 0.5005925355352905 0.49940746446470957 0.4530045292028006 0.5469954707971993
8
0.51596561584906 0.48403438415094 0.0663510914420946 0.9336489085579054 0.6755211670193658 0.3244788329806341 0.6186295878945806 0.38137041210541944
8
1 0 1 0 1 0 1 0
8
1 0 1 0 0 1 0 1
8
1 0 1 0 1 0 1 0
8
0.4589398994336125 0.5410601005663874 0.6037082728097598 0.3962917271902402 0.4940888414826977 0.5059111585173023 0.6402718177721741 0.3597281822278258
8
1 0 1 0 0 1 1 0
8
0 1 0 1 0 1 0 1
4
0 1 1 0
8
0 1 1 0 1 0 1 0
8
1 0 1 0 1 0 0 1
8
1 0 0 1 1 0 1 0
8
0 1 0 1 1 0 0 1
8
1 0 1 0 1 0 1 0
8
1 0 1 0 1 0 1 0
8
1 0 1 0 0 1 1 0
8
1 0 0 1 0 1 1 0
8
1 0 0 1 1 0 0 1
8
1 0 0 1 0 1 1 0
8
1 0 1 0 0 1 1 0
8
1 0 0 1 1 0 1 0
8
1 0 0 1 1 0 0 1
8
1 0 0 1 0 1 0 1
8
0.7553142600865174 0.24468573991348258 0.14033129004539704 0.8596687099546029 0.5742384696435365 0.42576153035646347 0.023729786289071138 0.9762702137109288
8
0 1 0 1 0 1 1 0
8
1 0 0 1 1 0 0 1
8
0.7146958215504493 0.2853041784495507 0.017997942342517153 0.9820020576574828 0.43327395424625653 0.5667260457537434 0.5210562415862096 0.47894375841379033
8
1 0 1 0 1 0 0 1
8
0 1 0 1 1 0 1 0
8
0.4631160681991771 0.5368839318008228 0.009013841684988526 0.9909861583150115 0.9413205690469362 0.05867943095306384 0.9425846091480775 0.05741539085192249
8
1 0 0 1 0 1 1 0
8
0 1 1 0 0 1 1 0
8
0 1 1 0 0 1 0 1
4
1 0 1 0
8
1 0 0 1 1 0 1 0
8
0.9061984560362014 0.09380154396379858 0.48950384001129327 0.5104961599887068 0.6253754044272231 0.3746245955727769 0.2894374791595488 0.7105625208404512
8
1 0 1 0 0 1 0 1
8
0 1 1 0 1 0 0 1
8
1 0 0 1 1 0 0 1
8
0 1 1 0 1 0 1 0
8
0 1 1 0 0 1 0 1
8
1 0 1 0 0 1 1 0
8
0 1 0 1 1 0 0 1
8
1 0 1 0 0 1 1 0
8
1 0 1 0 1 0 0 1
8
1 0 0 1 0 1 1 0
8
1 0 0 1 1 0 0 1
8
0 1 0 1 0 1 1 0
8
1 0 0 1 1 0 0 1
8
1 0 1 0 1 0 1 0
8
0.6970463715017886 0.3029536284982114 0.3524265416179377 0.6475734583820624 0.23209153313872724 0.7679084668612728 0.40378570660061786 0.5962142933993821
8
1 0 1 0 1 0 0 1
8
0 1 1 0 0 1 0 1
8
0 1 0 1 0 1 1 0
8
0 1 0 1 1 0 0 1
8
1 0 1 0 0 1 0 1
8
0 1 1 0 1 0 0 1
8
0 1 0 1 0 1 0 1
4
1 0 1 0
8
0 1 1 0 1 0 1 0
8
0 1 1 0 1 0 1 0
8
1 0 0 1 0 1 1 0
8
1 0 0 1 0 1 0 1
8
0 1 0 1 1 0 1 0
8
1 0 1 0 1 0 1 0
8
0.43963508111176214 0.5603649188882378 0.6847035710627557 0.31529642893724436 0.45934620520454056 0.5406537947954595 0.4821748112319643 0.5178251887680357
8
0 1 1 0 1 0 1 0
8
1 0 0 1 0 1 0 1
8
0 1 0 1 1 0 1 0
8
1 0 1 0 1 0 1 0
8
1 0 1 0 0 1 1 0
8
0 1 0 1 1 0 0 1
8
0 1 0 1 1 0 1 0
8
1 0 1 0 0 1 0 1
8
1 0 1 0 1 0 1 0
8
0 1 0 1 1 0 0 1
8
0 1 0 1 1 0 1 0
8
1 0 1 0 1 0 0 1
8
1 0 0 1 1 0 0 1
8
1 0 0 1 0 1 1 0
8
0 1 1 0 1 0 1 0
8
0 1 1 0 0 1 1 0
8
1 0 0 1 0 1 1 0
4
0.6105967961199461 0.3894032038800539 0.6951495101182292 0.3048504898817708
8
1 0 1 0 1 0 0 1
8
1 0 0 1 0 1 1 0
8
0 1 0 1 1 0 1 0
8
0 1 0 1 0 1 1 0
8
1 0 0 1 1 0 1 0
8
0 1 1 0 1 0 1 0
8
1 0 0 1 1 0 0 1
8
0 1 1 0 0 1 0 1
8
0 1 0 1 1 0 1 0
8
0 1 0 1 1 0 1 0
8
0 1 0 1 1 0 0 1
8
0 1 0 1 0 1 0 1
8
0 1 0 1 1 0 1 0
8
0 1 1 0 1 0 0 1
8
0 1 1 0 1 0 0 1
8
0 1 1 0 0 1 0 1
8
1 0 0 1 0 1 0 1
8
1 0 0 1 0 1 1 0
8
1 0 1 0 0 1 1 0
8
0.560810072508141 0.4391899274918591 0.918823131218412 0.08117686878158803 0.46083459826681294 0.539165401733187 0.19350426547704258 0.8064957345229573
8
0 1 0 1 1 0 0 1
8
0 1 1 0 0 1 0 1
8
0 1 0 1 0 1 0 1
8
1 0 1 0 1 0 0 1
4
1 0 1 0
8
1 0 1 0 0 1 0 1
8
1 0 0 1 1 0 1 0
8
0 1 1 0 1 0 0 1
8
0 1 1 0 1 0 1 0
8
0.3849901850335097 0.6150098149664903 0.12200010899980264 0.8779998910001974 0.8750338220065234 0.12496617799347665 0.4691675122166911 0.5308324877833088
8
1 0 0 1 0 1 1 0
8
0 1 1 0 1 0 1 0
8
1 0 0 1 0 1 0 1
8
0 1 1 0 1 0 1 0
8
0.2733888716227709 0.7266111283772291 0.33971257333480326 0.6602874266651968 0.7840039349336184 0.21599606506638164 0.1227149725100014 0.8772850274899986
8
1 0 1 0 0 1 1 0
8
0 1 0 1 1 0 1 0
8
0 1 0 1 0 1 0 1
8
0 1 1 0 0 1 1 0
8
0 1 0 1 1 0 0 1
8
0.6113566393476011 0.3886433606523989 0.6478950980390419 0.3521049019609581 0.4343407084068743 0.5656592915931257 0.4796940161000015 0.5203059838999984
8
0 1 1 0 0 1 1 0
8
0 1 1 0 0 1 0 1
8
0.4239680906181691 0.5760319093818309 0.5915499030721844 0.4084500969278157 0.4813954485182811 0.5186045514817188 0.6964241227450706 0.30357587725492935
8
0 1 1 0 0 1 1 0
8
1 0 1 0 1 0 1 0
8
0 1 1 0 0 1 1 0
8
1 0 0 1 0 1 1 0
8
1 0 1 0 1 0 1 0
4
0 1 1 0
8
1 0 1 0 0 1 1 0
8
0 1 0 1 1 0 0 1
8
0 1 0 1 0 1 0 1
8
0 1 0 1 0 1 0 1
8
1 0 1 0 0 1 1 0
8
1 0 1 0 1 0 1 0
8
1 0 1 0 0 1 0 1
8
0 1 1 0 1 0 1 0
8
1 0 1 0 1 0 1 0
8
0 1 0 1 1 0 1 0
8
1 0 0 1 0 1 0 1
8
1 0 0 1 0 1 0 1
8
0 1 0 1 0 1 1 0
8
1 0 0 1 1 0 0 1
8
1 0 0 1 0 1 1 0
8
0 1 1 0 0 1 1 0
8
0 1 0 1 1 0 0 1
8
0.7907639187028394 0.20923608129716065 0.3070194992558953 0.6929805007441048 0.036941057200026925 0.9630589427999731 0.38858038191343275 0.6114196180865673
8
0 1 1 0 1 0 1 0
8
0 1 1 0 1 0 1 0
8
0 1 1 0 1 0 1 0
8
0 1 0 1 1 0 1 0
8
0 1 1 0 1 0 1 0
8
1 0 0 1 1 0 0 1
4
0 1 0 1
8
0 1 0 1 0 1 0 1
8
0 1 1 0 0 1 1 0
8
0 1 1 0 1 0 1 0
8
1 0 0 1 1 0 1 0
8
1 0 0 1 0 1 1 0
8
1 0 1 0 0 1 1 0
8
1 0 1 0 1 0 1 0
8
0 1 0 1 1 0 1 0
8
0 1 1 0 0 1 0 1
8
1 0 0 1 0 1 1 0
8
1 0 1 0 1 0 0 1
8
0.5300093901445184 0.4699906098554816 0.7204549642067725 0.2795450357932276 0.5058910802595162 0.49410891974048377 0.7019841625089465 0.29801583749105354
8
1 0 0 1 0 1 0 1
8
1 0 1 0 0 1 0 1
8
0 1 1 0 1 0 1 0
8
1 0 0 1 0 1 1 0
8
0 1 0 1 1 0 1 0
8
1 0 1 0 0 1 1 0
8
1 0 0 1 1 0 1 0
8
1 0 0 1 1 0 1 0
8
1 0 0 1 1 0 0 1
8
1 0 0 1 0 1 1 0
8
0 1 0 1 0 1 1 0
8
0 1 0 1 1 0 0 1
4
0 1 0 1
8
0 1 1 0 0 1 1 0
8
1 0 1 0 0 1 1 0
8
0 1 1 0 0 1 0 1
8
0 1 1 0 0 1 0 1
8
1 0 0 1 0 1 1 0
8
1 0 0 1 1 0 0 1
8
1 0 1 0 0 1 1 0
8
0.8524515381996675 0.1475484618003324 0.7595495674985278 0.24045043250147222 0.33539481133801824 0.6646051886619818 0.30311669913532346 0.6968833008646765
8
1 0 0 1 1 0 0 1
8
1 0 0 1 1 0 1 0
8
1 0 1 0 1 0 1 0
8
1 0 0 1 1 0 1 0
8
0 1 1 0 1 0 0 1
8
0 1 0 1 1 0 0 1
8
0.3247412987508519 0.675258701249148 0.34631479634493023 0.6536852036550697 0.7630437308443295 0.23695626915567053 0.606406441163565 0.39359355883643493
8
1 0 1 0 1 0 0 1
8
1 0 1 0 1 0 0 1
8
0.5742901202028226 0.42570987979717756 0.6943742466044192 0.30562575339558085 0.31331158795375524 0.6866884120462448 0.6741967370354095 0.3258032629645905
8
1 0 1 0 1 0 0 1
8
1 0 1 0 1 0 1 0
8
1 0 0 1 1 0 0 1
8
0 1 0 1 1 0 1 0
8
0 1 1 0 1 0 1 0
8
0 1 0 1 1 0 1 0
4
1 0 0 1
8
0.5402157964323301 0.45978420356766986 0.3297728557942742 0.6702271442057258 0.47903750162729186 0.5209624983727081 0.650311221284375 0.34968877871562504
8
0.7885391705056936 0.21146082949430645 0.1538166713211518 0.8461833286788483 0.6833629648661178 0.31663703513388225 0.0679864501806532 0.9320135498193468
8
0 1 1 0 1 0 0 1
8
1 0 0 1 1 0 0 1
8
0 1 1 0 1 0 1 0
8
1 0 1 0 1 0 0 1
8
0.014035128842003428 0.9859648711579966 0.08639657906841192 0.9136034209315881 0.43240599205890895 0.5675940079410909 0.8464642799965033 0.15353572000349672
8
0 1 0 1 1 0 1 0
8
1 0 1 0 1 0 0 1
8
0 1 0 1 0 1 0 1
8
1 0 0 1 0 1 0 1
8
1 0 0 1 1 0 0 1
8
0 1 1 0 0 1 0 1
8
0 1 0 1 0 1 0 1
8
1 0 0 1 1 0 0 1
8
1 0 1 0 1 0 1 0
8
0.4065902071459802 0.5934097928540197 0.3029992149705064 0.6970007850294936 0.5050066074386391 0.4949933925613608 0.8909912722365045 0.10900872776349543
8
0 1 0 1 0 1 0 1
8
1 0 0 1 1 0 0 1
8
1 0 1 0 1 0 0 1
8
1 0 0 1 1 0 0 1
8
0.3461660034927952 0.6538339965072049 0.2772261179572228 0.7227738820427771 0.48795600413320156 0.5120439958667985 0.49899922312263034 0.5010007768773697
8
1 0 1 0 0 1 0 1
8
1 0 0 1 1 0 1 0
4
1 0 0 1
8
1 0 1 0 1 0 0 1
8
1 0 0 1 0 1 1 0
8
0.28622555277971345 0.7137744472202865 0.44683660529843794 0.5531633947015621 0.45644783461675464 0.5435521653832452 0.49023405110975915 0.5097659488902408
8
1 0 1 0 0 1 0 1
8
0 1 0 1 0 1 0 1
8
0 1 1 0 0 1 0 1
8
0 1 1 0 1 0 0 1
8
0 1 1 0 1 0 0 1
8
0.6023480187148409 0.39765198128515916 0.37322289205996945 0.6267771079400306 0.20682644197115801 0.793173558028842 0.2504964153428683 0.7495035846571316
8
1 0 1 0 1 0 0 1
8
0 1 1 0 1 0 1 0
8
1 0 0 1 0 1 0 1
8
0 1 1 0 1 0 1 0
8
0.35809919736651186 0.6419008026334883 0.514640750586249 0.485359249413751 0.38648540473205945 0.6135145952679405 0.7362877025615122 0.2637122974384878
8
0 1 0 1 0 1 0 1
8
1 0 1 0 1 0 1 0
8
0 1 1 0 1 0 1 0
8
0 1 1 0 0 1 0 1
8
1 0 1 0 1 0 0 1
8
0 1 1 0 1 0 0 1
8
0 1 0 1 0 1 1 0
8
0 1 0 1 1 0 1 0
8
0.8341693949923156 0.16583060500768448 0.3267650943839978 0.6732349056160023 0.33564949273426936 0.6643505072657305 0.5849434776900604 0.41505652230993956
8
1 0 0 1 0 1 1 0
4
1 0 1 0
8
0 1 0 1 1 0 0 1
8
1 0 0 1 0 1 0 1
8
0 1 1 0 1 0 0 1
8
1 0 1 0 0 1 0 1
8
1 0 1 0 1 0 1 0
8
1 0 0 1 1 0 1 0
8
1 0 0 1 1 0 1 0
8
0 1 1 0 1 0 1 0
8
0 1 0 1 0 1 0 1
8
1 0 0 1 1 0 0 1
8
0 1 1 0 1 0 0 1
8
0 1 0 1 0 1 0 1
8
0 1 0 1 0 1 0 1
8
0 1 1 0 0 1 0 1
8
0 1 0 1 0 1 1 0
8
0 1 1 0 0 1 1 0
8
1 0 1 0 1 0 1 0
8
0 1 1 0 0 1 0 1
8
1 0 0 1 0 1 1 0
8
1 0 0 1 0 1 0 1
8
1 0 1 0 1 0 1 0
8
1 0 1 0 0 1 0 1
8
0.5526929944920438 0.44730700550795627 0.7620551267536562 0.23794487324634378 0.3404598258518839 0.659540174148116 0.8637840213354854 0.1362159786645146
8
1 0 1 0 0 1 0 1
4
0 1 0 1
8
0 1 0 1 1 0 1 0
8
0 1 0 1 0 1 0 1
8
0 1 1 0 1 0 1 0
8
0 1 0 1 1 0 1 0
8
0 1 1 0 1 0 0 1
8
0 1 0 1 0 1 0 1
8
1 0 1 0 0 1 0 1
8
1 0 0 1 1 0 0 1
8
0 1 0 1 1 0 1 0
8
1 0 0 1 1 0 1 0
8
0 1 1 0 0 1 1 0
8
1 0 1 0 1 0 1 0
8
1 0 1 0 0 1 1 0
8
0.16403850000922954 0.8359614999907704 0.21190924250356152 0.7880907574964385 0.27979997727825845 0.7202000227217414 0.5054667099393518 0.4945332900606483
8
1 0 0 1 0 1 1 0
8
1 0 1 0 0 1 1 0
8
0.5043719859224685 0.49562801407753165 0.475363879917532 0.5246361200824681 0.8610565663843016 0.13894343361569844 0.9758596111353831 0.024140388864616863
8
1 0 1 0 1 0 1 0
8
1 0 0 1 0 1 0 1
8
1 0 0 1 1 0 0 1
8
0 1 0 1 0 1 0 1
8
0 1 1 0 1 0 1 0
8
0 1 1 0 1 0 0 1
8
0 1 1 0 0 1 1 0
4
1 0 0 1
8
0 1 1 0 1 0 1 0
8
0 1 1 0 0 1 1 0
8
1 0 1 0 0 1 1 0
8
0 1 1 0 0 1 0 1
8
0.2889780872065356 0.7110219127934644 0.2158628252365973 0.7841371747634027 0.3344553843217217 0.6655446156782783 0.7282216133941858 0.27177838660581416
8
1 0 0 1 0 1 0 1
8
1 0 0 1 0 1 0 1
8
0 1 1 0 0 1 1 0
8
1 0 0 1 1 0 1 0
8
1 0 1 0 0 1 1 0
8
1 0 1 0 1 0 1 0
8
0 1 1 0 0 1 1 0
8
0 1 0 1 0 1 0 1
8
1 0 0 1 0 1 1 0
8
0 1 0 1 0 1 1 0
8
0.2801142799581466 0.7198857200418535 0.2559687892130311 0.7440312107869689 0.5696351082554225 0.4303648917445775 0.39772137079548986 0.6022786292045103
8
0 1 1 0 0 1 0 1
8
1 0 0 1 1 0 0 1
8
0 1 1 0 1 0 0 1
8
1 0 0 1 1 0 0 1
8
0 1 0 1 1 0 0 1
8
1 0 0 1 0 1 0 1
8
0.1364897389532173 0.8635102610467826 0.7983204583421383 0.20167954165786178 0.54441599747525 0.45558400252475 0.022148240088437566 0.9778517599115625
8
0 1 0 1 0 1 0 1
4
1 0 0 1
8
1 0 0 1 1 0 0 1
8
1 0 1 0 1 0 0 1
8
1 0 1 0 0 1 1 0
8
1 0 0 1 0 1 0 1
8
1 0 1 0 0 1 1 0
8
0 1 1 0 1 0 0 1
8
0 1 0 1 0 1 0 1
8
0 1 1 0 1 0 0 1
8
1 0 1 0 0 1 1 0
8
1 0 0 1 1 0 1 0
8
1 0 1 0 0 1 1 0
8
1 0 1 0 0 1 0 1
8
0 1 1 0 0 1 1 0
8
1 0 1 0 1 0 1 0
8
0 1 0 1 0 1 1 0
8
1 0 1 0 1 0 1 0
8
1 0 1 0 1 0 0 1
8
0 1 0 1 0 1 0 1
8
1 0 1 0 0 1 1 0
8
1 0 1 0 1 0 1 0
8
1 0 1 0 1 0 0 1
8
0 1 1 0 1 0 0 1
8
1 0 1 0 1 0 1 0
8
1 0 0 1 0 1 1 0
4
0.6725374716764098 0.3274625283235903 0.49462332484077687 0.5053766751592231
4
0 1 0 1
4
1 0 0 1
4
0 1 1 0
4
0 1 0 1
4
0 1 1 0
4
1 0 1 0
4
0 1 1 0
4
1 0 0 1
4
0 1 0 1
4
1 0 1 0
4
1 0 0 1
4
0 1 0 1
4
1 0 0 1
4
0 1 0 1
4
0 1 1 0
4
0 1 0 1
4
0 1 1 0
4
0 1 0 1
4
0 1 0 1
4
0 1 0 1
4
1 0 1 0
4
0 1 1 0
4
0 1 0 1
4
0.9864016261472884 0.01359837385271155 0.05882717465589084 0.9411728253441092
2
0 1
